(set-logic QF_UF)
(declare-fun G101 () Bool)
(declare-fun G104 () Bool)
(declare-fun G107 () Bool)
(declare-fun G110 () Bool)
(declare-fun G113 () Bool)
(declare-fun G116 () Bool)
(declare-fun G119 () Bool)
(declare-fun G122 () Bool)
(declare-fun G125 () Bool)
(declare-fun G128 () Bool)
(declare-fun G131 () Bool)
(declare-fun G134 () Bool)
(declare-fun G137 () Bool)
(declare-fun G140 () Bool)
(declare-fun G143 () Bool)
(declare-fun G146 () Bool)
(declare-fun G210 () Bool)
(declare-fun G214 () Bool)
(declare-fun G217 () Bool)
(declare-fun G221 () Bool)
(declare-fun G224 () Bool)
(declare-fun G227 () Bool)
(declare-fun G234 () Bool)
(declare-fun G237 () Bool)
(declare-fun G469 () Bool)
(declare-fun G472 () Bool)
(declare-fun G475 () Bool)
(declare-fun G478 () Bool)
(declare-fun G898 () Bool)
(declare-fun G900 () Bool)
(declare-fun G902 () Bool)
(declare-fun G952 () Bool)
(declare-fun G953 () Bool)
(assert (let ((.def_0 (not G107))) (let ((.def_1 (not G140))) (let ((.def_2 (and .def_1 G110))) (let ((.def_3 (not .def_2))) (let ((.def_4 (not G110))) (let ((.def_5 (and G140 .def_4))) (let ((.def_6 (not .def_5))) (let ((.def_7 (and .def_6 .def_3))) (let ((.def_8 (not G953))) (let ((.def_9 (and .def_8 G227))) (let ((.def_10 (and .def_9 .def_7))) (let ((.def_11 (not .def_10))) (let ((.def_12 (not .def_7))) (let ((.def_13 (not .def_9))) (let ((.def_14 (and .def_13 .def_12))) (let ((.def_15 (not .def_14))) (let ((.def_16 (and .def_15 .def_11))) (let ((.def_17 (not G101))) (let ((.def_18 (and G104 .def_0))) (let ((.def_19 (not .def_18))) (let ((.def_20 (not G104))) (let ((.def_21 (and .def_20 G107))) (let ((.def_22 (not .def_21))) (let ((.def_23 (and .def_22 .def_19))) (let ((.def_24 (and .def_23 .def_17))) (let ((.def_25 (not .def_24))) (let ((.def_26 (not .def_23))) (let ((.def_27 (and .def_26 G101))) (let ((.def_28 (not .def_27))) (let ((.def_29 (and .def_28 .def_25))) (let ((.def_30 (not .def_29))) (let ((.def_31 (not G146))) (let ((.def_32 (and .def_31 G143))) (let ((.def_33 (not .def_32))) (let ((.def_34 (not G143))) (let ((.def_35 (and G146 .def_34))) (let ((.def_36 (not .def_35))) (let ((.def_37 (and .def_36 .def_33))) (let ((.def_38 (not G128))) (let ((.def_39 (and .def_38 .def_37))) (let ((.def_40 (not .def_39))) (let ((.def_41 (not .def_37))) (let ((.def_42 (and G128 .def_41))) (let ((.def_43 (not .def_42))) (let ((.def_44 (and .def_43 .def_40))) (let ((.def_45 (not .def_44))) (let ((.def_46 (and .def_45 .def_30))) (let ((.def_47 (not .def_46))) (let ((.def_48 (and .def_29 .def_44))) (let ((.def_49 (not .def_48))) (let ((.def_50 (and .def_49 .def_47))) (let ((.def_51 (not .def_50))) (let ((.def_52 (not G137))) (let ((.def_53 (and .def_52 G134))) (let ((.def_54 (not .def_53))) (let ((.def_55 (not G134))) (let ((.def_56 (and .def_55 G137))) (let ((.def_57 (not .def_56))) (let ((.def_58 (and .def_57 .def_54))) (let ((.def_59 (not G131))) (let ((.def_60 (and .def_59 .def_58))) (let ((.def_61 (not .def_60))) (let ((.def_62 (not .def_58))) (let ((.def_63 (and .def_62 G131))) (let ((.def_64 (not .def_63))) (let ((.def_65 (and .def_64 .def_61))) (let ((.def_66 (not .def_65))) (let ((.def_67 (and .def_66 .def_51))) (let ((.def_68 (not .def_67))) (let ((.def_69 (and .def_65 .def_50))) (let ((.def_70 (not .def_69))) (let ((.def_71 (and .def_70 .def_68))) (let ((.def_72 (and .def_71 .def_16))) (let ((.def_73 (not .def_72))) (let ((.def_74 (not .def_16))) (let ((.def_75 (not .def_71))) (let ((.def_76 (and .def_75 .def_74))) (let ((.def_77 (not .def_76))) (let ((.def_78 (and .def_77 .def_73))) (let ((.def_79 (not .def_78))) (let ((.def_80 (not G902))) (let ((.def_81 (and .def_80 .def_79))) (let ((.def_82 (not .def_81))) (let ((.def_83 (and .def_82 G469))) (let ((.def_84 (not .def_83))) (let ((.def_85 (not G469))) (let ((.def_86 (and .def_85 .def_81))) (let ((.def_87 (not .def_86))) (let ((.def_88 (and .def_87 .def_84))) (let ((.def_89 (not .def_88))) (let ((.def_90 (and .def_80 G234))) (let ((.def_91 (not .def_90))) (let ((.def_92 (and G221 .def_91))) (let ((.def_93 (not .def_92))) (let ((.def_94 (and .def_93 .def_89))) (let ((.def_95 (not G237))) (let ((.def_96 (and .def_80 .def_95))) (let ((.def_97 (not .def_96))) (let ((.def_98 (and G214 .def_97))) (let ((.def_99 (not .def_98))) (let ((.def_100 (not G119))) (let ((.def_101 (and G116 .def_100))) (let ((.def_102 (not .def_101))) (let ((.def_103 (not G116))) (let ((.def_104 (and G119 .def_103))) (let ((.def_105 (not .def_104))) (let ((.def_106 (and .def_105 .def_102))) (let ((.def_107 (not .def_106))) (let ((.def_108 (and G113 .def_107))) (let ((.def_109 (not .def_108))) (let ((.def_110 (not G113))) (let ((.def_111 (and .def_110 .def_106))) (let ((.def_112 (not .def_111))) (let ((.def_113 (and .def_112 .def_109))) (let ((.def_114 (and .def_0 G104))) (let ((.def_115 (not .def_114))) (let ((.def_116 (and G107 .def_20))) (let ((.def_117 (not .def_116))) (let ((.def_118 (and .def_117 .def_115))) (let ((.def_119 (and .def_118 .def_17))) (let ((.def_120 (not .def_119))) (let ((.def_121 (not .def_118))) (let ((.def_122 (and .def_121 G101))) (let ((.def_123 (not .def_122))) (let ((.def_124 (and .def_123 .def_120))) (let ((.def_125 (and .def_124 .def_113))) (let ((.def_126 (not .def_125))) (let ((.def_127 (not .def_124))) (let ((.def_128 (not .def_113))) (let ((.def_129 (and .def_128 .def_127))) (let ((.def_130 (not .def_129))) (let ((.def_131 (and .def_130 .def_126))) (let ((.def_132 (and .def_4 G122))) (let ((.def_133 (not .def_132))) (let ((.def_134 (not G122))) (let ((.def_135 (and G110 .def_134))) (let ((.def_136 (not .def_135))) (let ((.def_137 (and .def_136 .def_133))) (let ((.def_138 (and .def_137 .def_131))) (let ((.def_139 (not .def_138))) (let ((.def_140 (not .def_131))) (let ((.def_141 (not .def_137))) (let ((.def_142 (and .def_141 .def_140))) (let ((.def_143 (not .def_142))) (let ((.def_144 (and .def_143 .def_139))) (let ((.def_145 (not G125))) (let ((.def_146 (and .def_34 G146))) (let ((.def_147 (not .def_146))) (let ((.def_148 (and .def_33 .def_147))) (let ((.def_149 (not .def_148))) (let ((.def_150 (and G128 .def_149))) (let ((.def_151 (not .def_150))) (let ((.def_152 (and .def_148 .def_38))) (let ((.def_153 (not .def_152))) (let ((.def_154 (and .def_153 .def_151))) (let ((.def_155 (and .def_154 .def_145))) (let ((.def_156 (not .def_155))) (let ((.def_157 (not .def_154))) (let ((.def_158 (and .def_157 G125))) (let ((.def_159 (not .def_158))) (let ((.def_160 (and .def_159 .def_156))) (let ((.def_161 (and G224 .def_8))) (let ((.def_162 (and .def_161 .def_160))) (let ((.def_163 (not .def_162))) (let ((.def_164 (not .def_161))) (let ((.def_165 (not .def_160))) (let ((.def_166 (and .def_165 .def_164))) (let ((.def_167 (not .def_166))) (let ((.def_168 (and .def_167 .def_163))) (let ((.def_169 (and .def_168 .def_144))) (let ((.def_170 (not .def_169))) (let ((.def_171 (not .def_144))) (let ((.def_172 (not .def_168))) (let ((.def_173 (and .def_172 .def_171))) (let ((.def_174 (not .def_173))) (let ((.def_175 (and .def_174 .def_170))) (let ((.def_176 (and .def_175 .def_80))) (let ((.def_177 (not .def_176))) (let ((.def_178 (and .def_97 G210))) (let ((.def_179 (and .def_178 .def_177))) (let ((.def_180 (not .def_179))) (let ((.def_181 (not .def_178))) (let ((.def_182 (and .def_181 .def_176))) (let ((.def_183 (not .def_182))) (let ((.def_184 (and .def_183 .def_180))) (let ((.def_185 (not .def_184))) (let ((.def_186 (and .def_185 .def_99))) (let ((.def_187 (and G237 G234))) (let ((.def_188 (not .def_187))) (let ((.def_189 (not G898))) (let ((.def_190 (and .def_189 G953 .def_188 G902))) (let ((.def_191 (not .def_190))) (let ((.def_192 (and .def_188 .def_8 G952))) (let ((.def_193 (not .def_192))) (let ((.def_194 (and .def_193 .def_191))) (let ((.def_195 (not .def_194))) (let ((.def_196 (and .def_8 G234 G217))) (let ((.def_197 (not .def_196))) (let ((.def_198 (and G116 .def_134))) (let ((.def_199 (not .def_198))) (let ((.def_200 (and .def_103 G122))) (let ((.def_201 (not .def_200))) (let ((.def_202 (and .def_201 .def_199))) (let ((.def_203 (not .def_202))) (let ((.def_204 (and .def_203 G107))) (let ((.def_205 (not .def_204))) (let ((.def_206 (and .def_202 .def_0))) (let ((.def_207 (not .def_206))) (let ((.def_208 (and .def_207 .def_205))) (let ((.def_209 (and .def_38 G143))) (let ((.def_210 (not .def_209))) (let ((.def_211 (and .def_34 G128))) (let ((.def_212 (not .def_211))) (let ((.def_213 (and .def_212 .def_210))) (let ((.def_214 (and .def_213 .def_55))) (let ((.def_215 (not .def_214))) (let ((.def_216 (not .def_213))) (let ((.def_217 (and G134 .def_216))) (let ((.def_218 (not .def_217))) (let ((.def_219 (and .def_218 .def_215))) (let ((.def_220 (not .def_219))) (let ((.def_221 (and .def_220 .def_208))) (let ((.def_222 (not .def_221))) (let ((.def_223 (not .def_208))) (let ((.def_224 (and .def_223 .def_219))) (let ((.def_225 (not .def_224))) (let ((.def_226 (and .def_225 .def_222))) (let ((.def_227 (not .def_226))) (let ((.def_228 (and .def_227 .def_197))) (let ((.def_229 (not .def_228))) (let ((.def_230 (and .def_226 .def_196))) (let ((.def_231 (not .def_230))) (let ((.def_232 (and .def_231 .def_229))) (let ((.def_233 (not .def_232))) (let ((.def_234 (and .def_80 .def_233))) (let ((.def_235 (not G478))) (let ((.def_236 (and .def_235 .def_234))) (let ((.def_237 (not .def_236))) (let ((.def_238 (not .def_234))) (let ((.def_239 (and .def_238 G478))) (let ((.def_240 (not .def_239))) (let ((.def_241 (and .def_240 .def_237))) (let ((.def_242 (not .def_241))) (let ((.def_243 (and .def_145 G140))) (let ((.def_244 (not .def_243))) (let ((.def_245 (and .def_1 G125))) (let ((.def_246 (not .def_245))) (let ((.def_247 (and .def_246 .def_244))) (let ((.def_248 (and .def_31 .def_247))) (let ((.def_249 (not .def_248))) (let ((.def_250 (not .def_247))) (let ((.def_251 (and G146 .def_250))) (let ((.def_252 (not .def_251))) (let ((.def_253 (and .def_252 .def_249))) (let ((.def_254 (and .def_8 G214 .def_95))) (let ((.def_255 (and G143 .def_254))) (let ((.def_256 (not .def_255))) (let ((.def_257 (not .def_254))) (let ((.def_258 (and .def_34 .def_257))) (let ((.def_259 (not .def_258))) (let ((.def_260 (and .def_259 .def_256))) (let ((.def_261 (and .def_260 .def_59))) (let ((.def_262 (not .def_261))) (let ((.def_263 (not .def_260))) (let ((.def_264 (and .def_263 G131))) (let ((.def_265 (not .def_264))) (let ((.def_266 (and .def_265 .def_262))) (let ((.def_267 (not .def_266))) (let ((.def_268 (and .def_267 .def_253))) (let ((.def_269 (not .def_268))) (let ((.def_270 (not .def_253))) (let ((.def_271 (and .def_270 .def_266))) (let ((.def_272 (not .def_271))) (let ((.def_273 (and .def_272 .def_269))) (let ((.def_274 (and G122 .def_110))) (let ((.def_275 (not .def_274))) (let ((.def_276 (and .def_134 G113))) (let ((.def_277 (not .def_276))) (let ((.def_278 (and .def_277 .def_275))) (let ((.def_279 (and .def_278 .def_20))) (let ((.def_280 (not .def_279))) (let ((.def_281 (not .def_278))) (let ((.def_282 (and G104 .def_281))) (let ((.def_283 (not .def_282))) (let ((.def_284 (and .def_283 .def_280))) (let ((.def_285 (not .def_284))) (let ((.def_286 (and .def_285 .def_273))) (let ((.def_287 (not .def_286))) (let ((.def_288 (not .def_273))) (let ((.def_289 (and .def_284 .def_288))) (let ((.def_290 (not .def_289))) (let ((.def_291 (and .def_290 .def_287))) (let ((.def_292 (not .def_291))) (let ((.def_293 (and .def_80 .def_292))) (let ((.def_294 (not G475))) (let ((.def_295 (and .def_294 .def_293))) (let ((.def_296 (not .def_295))) (let ((.def_297 (not .def_293))) (let ((.def_298 (and .def_297 G475))) (let ((.def_299 (not .def_298))) (let ((.def_300 (and .def_299 .def_296))) (let ((.def_301 (and .def_300 .def_242))) (let ((.def_302 (and G128 .def_100))) (let ((.def_303 (not .def_302))) (let ((.def_304 (and G119 .def_38))) (let ((.def_305 (not .def_304))) (let ((.def_306 (and .def_305 .def_303))) (let ((.def_307 (not .def_306))) (let ((.def_308 (and .def_307 G110))) (let ((.def_309 (not .def_308))) (let ((.def_310 (and .def_4 .def_306))) (let ((.def_311 (not .def_310))) (let ((.def_312 (and .def_311 .def_309))) (let ((.def_313 (and .def_247 .def_31))) (let ((.def_314 (not .def_313))) (let ((.def_315 (and .def_252 .def_314))) (let ((.def_316 (not .def_315))) (let ((.def_317 (and .def_316 .def_312))) (let ((.def_318 (not .def_317))) (let ((.def_319 (not .def_312))) (let ((.def_320 (and .def_315 .def_319))) (let ((.def_321 (not .def_320))) (let ((.def_322 (and .def_321 .def_318))) (let ((.def_323 (not .def_322))) (let ((.def_324 (and G234 G221 .def_8))) (let ((.def_325 (and G137 .def_324))) (let ((.def_326 (not .def_325))) (let ((.def_327 (not .def_324))) (let ((.def_328 (and .def_327 .def_52))) (let ((.def_329 (not .def_328))) (let ((.def_330 (and .def_329 .def_326))) (let ((.def_331 (not .def_330))) (let ((.def_332 (and .def_331 .def_323))) (let ((.def_333 (not .def_332))) (let ((.def_334 (and .def_330 .def_322))) (let ((.def_335 (not .def_334))) (let ((.def_336 (and .def_335 .def_333))) (let ((.def_337 (not .def_336))) (let ((.def_338 (and .def_337 .def_80))) (let ((.def_339 (not .def_338))) (let ((.def_340 (and .def_91 G217))) (let ((.def_341 (and .def_340 .def_339))) (let ((.def_342 (not .def_341))) (let ((.def_343 (not .def_340))) (let ((.def_344 (and .def_343 .def_338))) (let ((.def_345 (not .def_344))) (let ((.def_346 (and .def_345 .def_342))) (let ((.def_347 (and .def_8 .def_95 G210))) (let ((.def_348 (and G101 .def_347))) (let ((.def_349 (not .def_348))) (let ((.def_350 (not .def_347))) (let ((.def_351 (and .def_17 .def_350))) (let ((.def_352 (not .def_351))) (let ((.def_353 (and .def_352 .def_349))) (let ((.def_354 (not .def_353))) (let ((.def_355 (and .def_103 G119))) (let ((.def_356 (not .def_355))) (let ((.def_357 (and .def_102 .def_356))) (let ((.def_358 (and .def_110 .def_357))) (let ((.def_359 (not .def_358))) (let ((.def_360 (not .def_357))) (let ((.def_361 (and .def_360 G113))) (let ((.def_362 (not .def_361))) (let ((.def_363 (and .def_362 .def_359))) (let ((.def_364 (and .def_154 .def_65))) (let ((.def_365 (not .def_364))) (let ((.def_366 (and .def_66 .def_157))) (let ((.def_367 (not .def_366))) (let ((.def_368 (and .def_367 .def_365))) (let ((.def_369 (and .def_368 .def_363))) (let ((.def_370 (not .def_369))) (let ((.def_371 (not .def_363))) (let ((.def_372 (not .def_368))) (let ((.def_373 (and .def_372 .def_371))) (let ((.def_374 (not .def_373))) (let ((.def_375 (and .def_374 .def_370))) (let ((.def_376 (and .def_375 .def_354))) (let ((.def_377 (not .def_376))) (let ((.def_378 (not .def_375))) (let ((.def_379 (and .def_353 .def_378))) (let ((.def_380 (not .def_379))) (let ((.def_381 (and .def_380 .def_377))) (let ((.def_382 (not .def_381))) (let ((.def_383 (and .def_80 .def_382))) (let ((.def_384 (not .def_383))) (let ((.def_385 (and G472 .def_384))) (let ((.def_386 (not .def_385))) (let ((.def_387 (not G472))) (let ((.def_388 (and .def_387 .def_383))) (let ((.def_389 (not .def_388))) (let ((.def_390 (and .def_389 .def_386))) (let ((.def_391 (and .def_390 .def_346))) (let ((.def_392 (and .def_391 .def_301 .def_195 .def_186 .def_94))) (let ((.def_393 (and .def_392 .def_0))) (let ((.def_394 (not .def_393))) (let ((.def_395 (not .def_392))) (let ((.def_396 (and G107 .def_395))) (let ((.def_397 (not .def_396))) (let ((.def_398 (and .def_397 .def_394))) (let ((.def_399 (not G952))) (let ((.def_400 (and .def_399 G953))) (let ((.def_401 (not .def_400))) (let ((.def_402 (and G125 .def_157))) (let ((.def_403 (not .def_402))) (let ((.def_404 (and .def_403 .def_156))) (let ((.def_405 (and .def_161 .def_404))) (let ((.def_406 (not .def_405))) (let ((.def_407 (not .def_404))) (let ((.def_408 (and .def_407 .def_164))) (let ((.def_409 (not .def_408))) (let ((.def_410 (and .def_409 .def_406))) (let ((.def_411 (and .def_171 .def_410))) (let ((.def_412 (not .def_411))) (let ((.def_413 (not .def_410))) (let ((.def_414 (and .def_413 .def_144))) (let ((.def_415 (not .def_414))) (let ((.def_416 (and .def_415 .def_412))) (let ((.def_417 (and .def_93 .def_88))) (let ((.def_418 (not .def_390))) (let ((.def_419 (and .def_418 .def_346))) (let ((.def_420 (not .def_300))) (let ((.def_421 (and .def_241 .def_420))) (let ((.def_422 (and .def_421 .def_419 .def_195 .def_186 .def_417))) (let ((.def_423 (not .def_422))) (let ((.def_424 (and .def_241 .def_300))) (let ((.def_425 (not .def_346))) (let ((.def_426 (and .def_418 .def_425))) (let ((.def_427 (and .def_426 .def_195 .def_186 .def_417 .def_424))) (let ((.def_428 (not .def_427))) (let ((.def_429 (and .def_424 .def_419 .def_195 .def_186 .def_94))) (let ((.def_430 (not .def_429))) (let ((.def_431 (and .def_390 .def_425))) (let ((.def_432 (and .def_424 .def_431 .def_195 .def_186 .def_94))) (let ((.def_433 (not .def_432))) (let ((.def_434 (and .def_391 .def_421 .def_195 .def_186 .def_94))) (let ((.def_435 (not .def_434))) (let ((.def_436 (and .def_242 .def_420))) (let ((.def_437 (and .def_391 .def_436 .def_195 .def_186 .def_417))) (let ((.def_438 (not .def_437))) (let ((.def_439 (and .def_419 .def_301 .def_195 .def_186 .def_417))) (let ((.def_440 (not .def_439))) (let ((.def_441 (and .def_440 .def_438 .def_435 .def_433 .def_395 .def_430 .def_428 .def_423))) (let ((.def_442 (and .def_99 .def_184))) (let ((.def_443 (not G900))) (let ((.def_444 (and .def_188 G953 G902 .def_443))) (let ((.def_445 (not .def_444))) (let ((.def_446 (and .def_445 .def_193))) (let ((.def_447 (not .def_446))) (let ((.def_448 (and .def_94 .def_419 .def_447 .def_301 .def_442))) (let ((.def_449 (not .def_448))) (let ((.def_450 (and .def_94 .def_426 .def_447 .def_442 .def_424))) (let ((.def_451 (not .def_450))) (let ((.def_452 (and .def_426 .def_447 .def_301 .def_186 .def_94))) (let ((.def_453 (not .def_452))) (let ((.def_454 (and .def_94 .def_426 .def_421 .def_447 .def_186))) (let ((.def_455 (not .def_454))) (let ((.def_456 (and .def_94 .def_421 .def_419 .def_447 .def_442))) (let ((.def_457 (not .def_456))) (let ((.def_458 (and .def_421 .def_447 .def_431 .def_186 .def_417))) (let ((.def_459 (not .def_458))) (let ((.def_460 (and .def_94 .def_421 .def_447 .def_431 .def_442))) (let ((.def_461 (not .def_460))) (let ((.def_462 (and .def_94 .def_436 .def_419 .def_447 .def_186))) (let ((.def_463 (not .def_462))) (let ((.def_464 (and .def_463 .def_461 .def_459 .def_457 .def_455 .def_453 .def_451 .def_449))) (let ((.def_465 (and .def_464 .def_441))) (let ((.def_466 (not .def_465))) (let ((.def_467 (and .def_466 G902 .def_178))) (let ((.def_468 (and .def_467 .def_416))) (let ((.def_469 (not .def_468))) (let ((.def_470 (not .def_467))) (let ((.def_471 (not .def_416))) (let ((.def_472 (and .def_471 .def_470))) (let ((.def_473 (not .def_472))) (let ((.def_474 (and .def_473 .def_469))) (let ((.def_475 (not .def_474))) (let ((.def_476 (and .def_475 .def_401))) (let ((.def_477 (and .def_55 .def_448))) (let ((.def_478 (not .def_477))) (let ((.def_479 (and G134 .def_449))) (let ((.def_480 (not .def_479))) (let ((.def_481 (and .def_480 .def_478))) (let ((.def_482 (not .def_481))) (let ((.def_483 (and .def_110 .def_422))) (let ((.def_484 (not .def_483))) (let ((.def_485 (and G113 .def_423))) (let ((.def_486 (not .def_485))) (let ((.def_487 (and .def_486 .def_484))) (let ((.def_488 (and .def_456 .def_59))) (let ((.def_489 (not .def_488))) (let ((.def_490 (and .def_457 G131))) (let ((.def_491 (not .def_490))) (let ((.def_492 (and .def_491 .def_489))) (let ((.def_493 (not .def_492))) (let ((.def_494 (and .def_450 .def_52))) (let ((.def_495 (not .def_494))) (let ((.def_496 (and G137 .def_451))) (let ((.def_497 (not .def_496))) (let ((.def_498 (and .def_497 .def_495))) (let ((.def_499 (not .def_498))) (let ((.def_500 (and .def_100 .def_427))) (let ((.def_501 (not .def_500))) (let ((.def_502 (and .def_428 G119))) (let ((.def_503 (not .def_502))) (let ((.def_504 (and .def_503 .def_501))) (let ((.def_505 (not .def_504))) (let ((.def_506 (and G224 G898))) (let ((.def_507 (not .def_506))) (let ((.def_508 (and .def_507 G953))) (let ((.def_509 (and .def_127 .def_128))) (let ((.def_510 (not .def_509))) (let ((.def_511 (and .def_510 .def_126))) (let ((.def_512 (and .def_137 .def_511))) (let ((.def_513 (not .def_512))) (let ((.def_514 (not .def_511))) (let ((.def_515 (and .def_514 .def_141))) (let ((.def_516 (not .def_515))) (let ((.def_517 (and .def_516 .def_513))) (let ((.def_518 (and .def_189 G953))) (let ((.def_519 (not .def_518))) (let ((.def_520 (and .def_519 .def_517))) (let ((.def_521 (not .def_520))) (let ((.def_522 (not .def_441))) (let ((.def_523 (and .def_8 .def_522))) (let ((.def_524 (and .def_523 .def_521))) (let ((.def_525 (not .def_524))) (let ((.def_526 (not .def_523))) (let ((.def_527 (and .def_526 .def_520))) (let ((.def_528 (not .def_527))) (let ((.def_529 (and .def_528 .def_525))) (let ((.def_530 (and .def_529 .def_508))) (let ((.def_531 (not .def_530))) (let ((.def_532 (not .def_508))) (let ((.def_533 (not .def_529))) (let ((.def_534 (and .def_533 .def_532))) (let ((.def_535 (not .def_534))) (let ((.def_536 (and .def_535 .def_531))) (let ((.def_537 (and G125 .def_459))) (let ((.def_538 (not .def_537))) (let ((.def_539 (and .def_145 .def_458))) (let ((.def_540 (not .def_539))) (let ((.def_541 (and .def_540 .def_538))) (let ((.def_542 (not .def_541))) (let ((.def_543 (and .def_4 G140))) (let ((.def_544 (not .def_543))) (let ((.def_545 (and .def_544 .def_3))) (let ((.def_546 (and .def_545 .def_9))) (let ((.def_547 (not .def_546))) (let ((.def_548 (not .def_545))) (let ((.def_549 (and .def_548 .def_13))) (let ((.def_550 (not .def_549))) (let ((.def_551 (and .def_550 .def_547))) (let ((.def_552 (and .def_44 .def_29))) (let ((.def_553 (not .def_552))) (let ((.def_554 (and .def_30 .def_45))) (let ((.def_555 (not .def_554))) (let ((.def_556 (and .def_555 .def_553))) (let ((.def_557 (not .def_556))) (let ((.def_558 (and .def_557 .def_66))) (let ((.def_559 (not .def_558))) (let ((.def_560 (and .def_556 .def_65))) (let ((.def_561 (not .def_560))) (let ((.def_562 (and .def_561 .def_559))) (let ((.def_563 (and .def_562 .def_551))) (let ((.def_564 (not .def_563))) (let ((.def_565 (not .def_551))) (let ((.def_566 (not .def_562))) (let ((.def_567 (and .def_566 .def_565))) (let ((.def_568 (not .def_567))) (let ((.def_569 (and .def_568 .def_564))) (let ((.def_570 (and .def_466 G902 G469))) (let ((.def_571 (and .def_570 .def_569))) (let ((.def_572 (not .def_571))) (let ((.def_573 (not .def_569))) (let ((.def_574 (not .def_570))) (let ((.def_575 (and .def_574 .def_573))) (let ((.def_576 (not .def_575))) (let ((.def_577 (and .def_576 .def_572))) (let ((.def_578 (not .def_577))) (let ((.def_579 (and .def_578 .def_401))) (let ((.def_580 (and .def_466 G902 G478))) (let ((.def_581 (and .def_232 .def_580))) (let ((.def_582 (not .def_581))) (let ((.def_583 (not .def_580))) (let ((.def_584 (and .def_233 .def_583))) (let ((.def_585 (not .def_584))) (let ((.def_586 (and .def_585 .def_582))) (let ((.def_587 (not .def_586))) (let ((.def_588 (and .def_401 .def_587))) (let ((.def_589 (not .def_588))) (let ((.def_590 (and .def_350 .def_17))) (let ((.def_591 (not .def_590))) (let ((.def_592 (and .def_347 G101))) (let ((.def_593 (not .def_592))) (let ((.def_594 (and .def_593 .def_591))) (let ((.def_595 (and .def_466 G472 G902))) (let ((.def_596 (and .def_157 .def_66))) (let ((.def_597 (not .def_596))) (let ((.def_598 (and .def_597 .def_365))) (let ((.def_599 (and .def_598 .def_363))) (let ((.def_600 (not .def_599))) (let ((.def_601 (not .def_598))) (let ((.def_602 (and .def_371 .def_601))) (let ((.def_603 (not .def_602))) (let ((.def_604 (and .def_603 .def_600))) (let ((.def_605 (and .def_604 .def_595))) (let ((.def_606 (not .def_605))) (let ((.def_607 (not .def_595))) (let ((.def_608 (not .def_604))) (let ((.def_609 (and .def_608 .def_607))) (let ((.def_610 (not .def_609))) (let ((.def_611 (and .def_610 .def_606))) (let ((.def_612 (not .def_611))) (let ((.def_613 (and .def_612 .def_594))) (let ((.def_614 (not .def_613))) (let ((.def_615 (not .def_594))) (let ((.def_616 (and .def_611 .def_615))) (let ((.def_617 (not .def_616))) (let ((.def_618 (and .def_617 .def_614))) (let ((.def_619 (not .def_618))) (let ((.def_620 (and .def_619 .def_401))) (let ((.def_621 (and .def_134 .def_437))) (let ((.def_622 (not .def_621))) (let ((.def_623 (and .def_438 G122))) (let ((.def_624 (not .def_623))) (let ((.def_625 (and .def_624 .def_622))) (let ((.def_626 (not .def_625))) (let ((.def_627 (and .def_433 G110))) (let ((.def_628 (not .def_627))) (let ((.def_629 (and .def_432 .def_4))) (let ((.def_630 (not .def_629))) (let ((.def_631 (and .def_630 .def_628))) (let ((.def_632 (and .def_462 .def_34))) (let ((.def_633 (not .def_632))) (let ((.def_634 (and G143 .def_463))) (let ((.def_635 (not .def_634))) (let ((.def_636 (and .def_635 .def_633))) (let ((.def_637 (and .def_466 G902 .def_340))) (let ((.def_638 (and .def_637 .def_336))) (let ((.def_639 (not .def_638))) (let ((.def_640 (not .def_637))) (let ((.def_641 (and .def_640 .def_337))) (let ((.def_642 (not .def_641))) (let ((.def_643 (and .def_642 .def_639))) (let ((.def_644 (not .def_643))) (let ((.def_645 (and .def_644 .def_401))) (let ((.def_646 (not .def_645))) (let ((.def_647 (and .def_455 G146))) (let ((.def_648 (not .def_647))) (let ((.def_649 (and .def_454 .def_31))) (let ((.def_650 (not .def_649))) (let ((.def_651 (and .def_650 .def_648))) (let ((.def_652 (not .def_651))) (let ((.def_653 (and G104 .def_435))) (let ((.def_654 (not .def_653))) (let ((.def_655 (and .def_20 .def_434))) (let ((.def_656 (not .def_655))) (let ((.def_657 (and .def_656 .def_654))) (let ((.def_658 (not .def_657))) (let ((.def_659 (and G900 G227))) (let ((.def_660 (not .def_659))) (let ((.def_661 (and G953 .def_660))) (let ((.def_662 (and G125 .def_1))) (let ((.def_663 (not .def_662))) (let ((.def_664 (and .def_244 .def_663))) (let ((.def_665 (and G137 .def_55))) (let ((.def_666 (not .def_665))) (let ((.def_667 (and .def_666 .def_54))) (let ((.def_668 (not .def_667))) (let ((.def_669 (and .def_668 G131))) (let ((.def_670 (not .def_669))) (let ((.def_671 (and .def_59 .def_667))) (let ((.def_672 (not .def_671))) (let ((.def_673 (and .def_672 .def_670))) (let ((.def_674 (and .def_673 .def_44))) (let ((.def_675 (not .def_674))) (let ((.def_676 (not .def_673))) (let ((.def_677 (and .def_45 .def_676))) (let ((.def_678 (not .def_677))) (let ((.def_679 (and .def_678 .def_675))) (let ((.def_680 (and .def_679 .def_664))) (let ((.def_681 (not .def_680))) (let ((.def_682 (not .def_664))) (let ((.def_683 (not .def_679))) (let ((.def_684 (and .def_683 .def_682))) (let ((.def_685 (not .def_684))) (let ((.def_686 (and .def_685 .def_681))) (let ((.def_687 (and G953 .def_443))) (let ((.def_688 (not .def_687))) (let ((.def_689 (and .def_688 .def_686))) (let ((.def_690 (not .def_689))) (let ((.def_691 (not .def_464))) (let ((.def_692 (and .def_691 .def_8))) (let ((.def_693 (and .def_692 .def_690))) (let ((.def_694 (not .def_693))) (let ((.def_695 (not .def_692))) (let ((.def_696 (and .def_695 .def_689))) (let ((.def_697 (not .def_696))) (let ((.def_698 (and .def_697 .def_694))) (let ((.def_699 (and .def_698 .def_661))) (let ((.def_700 (not .def_699))) (let ((.def_701 (not .def_661))) (let ((.def_702 (not .def_698))) (let ((.def_703 (and .def_702 .def_701))) (let ((.def_704 (not .def_703))) (let ((.def_705 (and .def_704 .def_700))) (let ((.def_706 (not .def_705))) (let ((.def_707 (and .def_180 .def_183))) (let ((.def_708 (and .def_84 .def_87))) (let ((.def_709 (and G475 .def_297))) (let ((.def_710 (not .def_709))) (let ((.def_711 (and .def_296 .def_710))) (let ((.def_712 (and .def_234 .def_235))) (let ((.def_713 (not .def_712))) (let ((.def_714 (and .def_713 .def_240))) (let ((.def_715 (and .def_342 .def_345))) (let ((.def_716 (and .def_383 .def_387))) (let ((.def_717 (not .def_716))) (let ((.def_718 (and .def_384 G472))) (let ((.def_719 (not .def_718))) (let ((.def_720 (and .def_719 .def_717))) (let ((.def_721 (and .def_720 .def_99 .def_715 .def_714 .def_711 .def_93 .def_708 .def_707))) (let ((.def_722 (not .def_721))) (let ((.def_723 (and .def_8 .def_399 .def_722))) (let ((.def_724 (and .def_192 .def_94 .def_391 .def_442 .def_424))) (let ((.def_725 (not .def_724))) (let ((.def_726 (and .def_192 .def_419 .def_442 .def_424 .def_417))) (let ((.def_727 (not .def_726))) (let ((.def_728 (and .def_192 .def_391 .def_421 .def_442 .def_417))) (let ((.def_729 (not .def_728))) (let ((.def_730 (and .def_192 .def_391 .def_301 .def_442 .def_417))) (let ((.def_731 (not .def_730))) (let ((.def_732 (and .def_192 .def_391 .def_186 .def_417 .def_424))) (let ((.def_733 (not .def_732))) (let ((.def_734 (and .def_98 .def_184))) (let ((.def_735 (and .def_192 .def_391 .def_417 .def_424 .def_734))) (let ((.def_736 (not .def_735))) (let ((.def_737 (and .def_88 .def_92))) (let ((.def_738 (and .def_192 .def_391 .def_737 .def_442 .def_424))) (let ((.def_739 (not .def_738))) (let ((.def_740 (and .def_192 .def_431 .def_442 .def_424 .def_417))) (let ((.def_741 (not .def_740))) (let ((.def_742 (and .def_741 .def_739 .def_736 .def_733 .def_731 .def_729 .def_727 .def_725))) (let ((.def_743 (and .def_464 .def_742 .def_441))) (let ((.def_744 (and .def_8 .def_743 .def_722 G952))) (let ((.def_745 (or .def_744 .def_723))) (let ((.def_746 (and .def_439 .def_103))) (let ((.def_747 (not .def_746))) (let ((.def_748 (and G116 .def_440))) (let ((.def_749 (not .def_748))) (let ((.def_750 (and .def_749 .def_747))) (let ((.def_751 (and .def_1 .def_460))) (let ((.def_752 (not .def_751))) (let ((.def_753 (and G140 .def_461))) (let ((.def_754 (not .def_753))) (let ((.def_755 (and .def_754 .def_752))) (let ((.def_756 (and .def_755 .def_750 .def_745 .def_706 .def_658 .def_652 .def_646 .def_636 .def_631 .def_626 .def_620 .def_589 .def_579 .def_542 .def_536 .def_505 .def_499 .def_493 .def_487 .def_482 .def_476 .def_398))) .def_756))))))))))))))))))))))))))))))))))))))))))))))))))))))))))))))))))))))))))))))))))))))))))))))))))))))))))))))))))))))))))))))))))))))))))))))))))))))))))))))))))))))))))))))))))))))))))))))))))))))))))))))))))))))))))))))))))))))))))))))))))))))))))))))))))))))))))))))))))))))))))))))))))))))))))))))))))))))))))))))))))))))))))))))))))))))))))))))))))))))))))))))))))))))))))))))))))))))))))))))))))))))))))))))))))))))))))))))))))))))))))))))))))))))))))))))))))))))))))))))))))))))))))))))))))))))))))))))))))))))))))))))))))))))))))))))))))))))))))))))))))))))))))))))))))))))))))))))))))))))))))))))))))))))))))))))))))))))))))))))))))))))))))))))))))))))))))))))))))))))))))))))))))))))))))))))))))))))))))))))))))))))))))))))))))))))))))))))))))))))
(check-sat)
